
Gurobi 6.0.4 (win64) logging started 06/18/15 17:38:44

Read LP format model from file E:\Eigene Dateien\Downloads\Michi shit\VRPTWMS2\instances\mip\fuel\N12-C_DV100-C_SV25_F5_8_No_1.lp
Reading time = 0.02 seconds
(null): 865 rows, 392 columns, 3639 nonzeros
Optimize a model with 865 rows, 392 columns and 3639 nonzeros
Model has 1728 quadratic constraints
Coefficient statistics:
  Matrix range    [1e+00, 1e+06]
  Objective range [5e+04, 1e+07]
  Bounds range    [1e+00, 1e+06]
  RHS range       [1e+00, 1e+06]
Presolve removed 116 rows and 66 columns
Presolve time: 0.09s
Presolved: 2999 rows, 1451 columns, 17147 nonzeros
Variable types: 1125 continuous, 326 integer (279 binary)

Root relaxation: objective 1.223718e+07, 109 iterations, 0.02 seconds

    Nodes    |    Current Node    |     Objective Bounds      |     Work
 Expl Unexpl |  Obj  Depth IntInf | Incumbent    BestBd   Gap | It/Node Time

     0     0 1.2237e+07    0   40          - 1.2237e+07      -     -    0s
     0     0 1.2308e+07    0   43          - 1.2308e+07      -     -    0s
     0     0 1.2348e+07    0   49          - 1.2348e+07      -     -    0s
     0     0 1.2360e+07    0   47          - 1.2360e+07      -     -    0s
     0     0 1.2368e+07    0   51          - 1.2368e+07      -     -    0s
     0     0 1.2368e+07    0   52          - 1.2368e+07      -     -    0s
     0     0 1.2376e+07    0   50          - 1.2376e+07      -     -    0s
     0     0 1.2376e+07    0   50          - 1.2376e+07      -     -    0s

Cutting planes:
  Learned: 1
  Gomory: 4
  Cover: 3
  Implied bound: 4
  Clique: 1
  MIR: 4
  GUB cover: 4

Explored 0 nodes (0 simplex iterations) in 0.36 seconds
Thread count was 4 (of 4 available processors)

Model is infeasible
Best objective -, best bound -, gap -
